1608866
0,53,18,48,22,10,65,25,54,33,45,42,6,66,63,37,20,2,62,15,58,35,49,27,30,21,51,32,56,17,9,13,43,52,36,61,38,50,34,67,7,14,57,8,16,26,44,64,1,47,3,19,12,46,23,60,41,28,24,29,40,5,59,4,39,55,31,11,0